NAME: st70
TYPE: TSP
COMMENT: 70-city problem (Smith/Thompson)
DIMENSION: 70
EDGE_WEIGHT_TYPE : EUC_2D
NODE_COORD_SECTION
1 0.262 0.265 
2 0.845 0.435 
3 0.712 1.142  
4 0.492 1.756 
5 1.512 1.682 
6 1.185 1.264 
7 1.425 0.679 
8 1.895 1.112 
EOF
